c nIsolatedPIs 0
c maxPI 32
p cnf 215 550
c gate 33 2 18 0
2 -33 0
18 -33 0
-2 -18 33 0
c gate 34 1 17 0
1 -34 0
17 -34 0
-1 -17 34 0
c gate 35 -33 -34 0
-33 -35 0
-34 -35 0
33 34 35 0
c gate 36 -2 -18 0
-2 -36 0
-18 -36 0
2 18 36 0
c gate 37 -3 -19 0
-3 -37 0
-19 -37 0
3 19 37 0
c gate 38 -36 -37 0
-36 -38 0
-37 -38 0
36 37 38 0
c gate 39 -35 38 0
-35 -39 0
38 -39 0
35 -38 39 0
c gate 40 4 20 0
4 -40 0
20 -40 0
-4 -20 40 0
c gate 41 3 19 0
3 -41 0
19 -41 0
-3 -19 41 0
c gate 42 -40 -41 0
-40 -42 0
-41 -42 0
40 41 42 0
c gate 43 -39 42 0
-39 -43 0
42 -43 0
39 -42 43 0
c gate 44 -5 -21 0
-5 -44 0
-21 -44 0
5 21 44 0
c gate 45 -4 -20 0
-4 -45 0
-20 -45 0
4 20 45 0
c gate 46 -44 -45 0
-44 -46 0
-45 -46 0
44 45 46 0
c gate 47 -43 46 0
-43 -47 0
46 -47 0
43 -46 47 0
c gate 48 6 -22 0
6 -48 0
-22 -48 0
-6 22 48 0
c gate 49 -6 22 0
-6 -49 0
22 -49 0
6 -22 49 0
c gate 50 -48 -49 0
-48 -50 0
-49 -50 0
48 49 50 0
c gate 51 5 21 0
5 -51 0
21 -51 0
-5 -21 51 0
c gate 52 -50 -51 0
-50 -52 0
-51 -52 0
50 51 52 0
c gate 53 -47 52 0
-47 -53 0
52 -53 0
47 -52 53 0
c gate 54 -11 -27 0
-11 -54 0
-27 -54 0
11 27 54 0
c gate 55 11 27 0
11 -55 0
27 -55 0
-11 -27 55 0
c gate 56 -54 -55 0
-54 -56 0
-55 -56 0
54 55 56 0
c gate 57 10 -26 0
10 -57 0
-26 -57 0
-10 26 57 0
c gate 58 8 -24 0
8 -58 0
-24 -58 0
-8 24 58 0
c gate 59 9 25 0
9 -59 0
25 -59 0
-9 -25 59 0
c gate 60 -9 -25 0
-9 -60 0
-25 -60 0
9 25 60 0
c gate 61 -59 -60 0
-59 -61 0
-60 -61 0
59 60 61 0
c gate 62 -58 -61 0
-58 -62 0
-61 -62 0
58 61 62 0
c gate 63 -10 26 0
-10 -63 0
26 -63 0
10 -26 63 0
c gate 64 -9 25 0
-9 -64 0
25 -64 0
9 -25 64 0
c gate 65 -63 -64 0
-63 -65 0
-64 -65 0
63 64 65 0
c gate 66 -62 65 0
-62 -66 0
65 -66 0
62 -65 66 0
c gate 67 -57 -66 0
-57 -67 0
-66 -67 0
57 66 67 0
c gate 68 -7 23 0
-7 -68 0
23 -68 0
7 -23 68 0
c gate 69 7 -23 0
7 -69 0
-23 -69 0
-7 23 69 0
c gate 70 -48 -69 0
-48 -70 0
-69 -70 0
48 69 70 0
c gate 71 -2 18 0
-2 -71 0
18 -71 0
2 -18 71 0
c gate 72 -1 17 0
-1 -72 0
17 -72 0
1 -17 72 0
c gate 73 -71 -72 0
-71 -73 0
-72 -73 0
71 72 73 0
c gate 74 2 -18 0
2 -74 0
-18 -74 0
-2 18 74 0
c gate 75 3 -19 0
3 -75 0
-19 -75 0
-3 19 75 0
c gate 76 -74 -75 0
-74 -76 0
-75 -76 0
74 75 76 0
c gate 77 -73 76 0
-73 -77 0
76 -77 0
73 -76 77 0
c gate 78 -4 20 0
-4 -78 0
20 -78 0
4 -20 78 0
c gate 79 -3 19 0
-3 -79 0
19 -79 0
3 -19 79 0
c gate 80 -78 -79 0
-78 -80 0
-79 -80 0
78 79 80 0
c gate 81 -77 80 0
-77 -81 0
80 -81 0
77 -80 81 0
c gate 82 5 -21 0
5 -82 0
-21 -82 0
-5 21 82 0
c gate 83 4 -20 0
4 -83 0
-20 -83 0
-4 20 83 0
c gate 84 -82 -83 0
-82 -84 0
-83 -84 0
82 83 84 0
c gate 85 -81 84 0
-81 -85 0
84 -85 0
81 -84 85 0
c gate 86 -5 21 0
-5 -86 0
21 -86 0
5 -21 86 0
c gate 87 50 -86 0
50 -87 0
-86 -87 0
-50 86 87 0
c gate 88 -85 87 0
-85 -88 0
87 -88 0
85 -87 88 0
c gate 89 70 -88 0
70 -89 0
-88 -89 0
-70 88 89 0
c gate 90 -68 -89 0
-68 -90 0
-89 -90 0
68 89 90 0
c gate 91 8 24 0
8 -91 0
24 -91 0
-8 -24 91 0
c gate 92 -8 -24 0
-8 -92 0
-24 -92 0
8 24 92 0
c gate 93 -91 -92 0
-91 -93 0
-92 -93 0
91 92 93 0
c gate 94 90 -93 0
90 -94 0
-93 -94 0
-90 93 94 0
c gate 95 65 94 0
65 -95 0
94 -95 0
-65 -94 95 0
c gate 96 67 -95 0
67 -96 0
-95 -96 0
-67 95 96 0
c gate 97 -56 96 0
-56 -97 0
96 -97 0
56 -96 97 0
c gate 98 56 -96 0
56 -98 0
-96 -98 0
-56 96 98 0
c gate 99 -97 -98 0
-97 -99 0
-98 -99 0
97 98 99 0
c gate 100 67 -99 0
67 -100 0
-99 -100 0
-67 99 100 0
c gate 101 -15 -31 0
-15 -101 0
-31 -101 0
15 31 101 0
c gate 102 15 31 0
15 -102 0
31 -102 0
-15 -31 102 0
c gate 103 -101 -102 0
-101 -103 0
-102 -103 0
101 102 103 0
c gate 104 -14 -30 0
-14 -104 0
-30 -104 0
14 30 104 0
c gate 105 14 30 0
14 -105 0
30 -105 0
-14 -30 105 0
c gate 106 -104 -105 0
-104 -106 0
-105 -106 0
104 105 106 0
c gate 107 -13 -29 0
-13 -107 0
-29 -107 0
13 29 107 0
c gate 108 12 28 0
12 -108 0
28 -108 0
-12 -28 108 0
c gate 109 -12 -28 0
-12 -109 0
-28 -109 0
12 28 109 0
c gate 110 -108 -109 0
-108 -110 0
-109 -110 0
108 109 110 0
c gate 111 -10 -26 0
-10 -111 0
-26 -111 0
10 26 111 0
c gate 112 -7 -23 0
-7 -112 0
-23 -112 0
7 23 112 0
c gate 113 -91 112 0
-91 -113 0
112 -113 0
91 -112 113 0
c gate 114 -60 -92 0
-60 -114 0
-92 -114 0
60 92 114 0
c gate 115 -113 114 0
-113 -115 0
114 -115 0
113 -114 115 0
c gate 116 -6 -22 0
-6 -116 0
-22 -116 0
6 22 116 0
c gate 117 -53 -116 0
-53 -117 0
-116 -117 0
53 116 117 0
c gate 118 -68 -69 0
-68 -118 0
-69 -118 0
68 69 118 0
c gate 119 93 -118 0
93 -119 0
-118 -119 0
-93 118 119 0
c gate 120 -117 119 0
-117 -120 0
119 -120 0
117 -119 120 0
c gate 121 115 -120 0
115 -121 0
-120 -121 0
-115 120 121 0
c gate 122 -59 -121 0
-59 -122 0
-121 -122 0
59 121 122 0
c gate 123 -111 -122 0
-111 -123 0
-122 -123 0
111 122 123 0
c gate 124 10 26 0
10 -124 0
26 -124 0
-10 -26 124 0
c gate 125 -55 -124 0
-55 -125 0
-124 -125 0
55 124 125 0
c gate 126 -123 125 0
-123 -126 0
125 -126 0
123 -125 126 0
c gate 127 -54 -126 0
-54 -127 0
-126 -127 0
54 126 127 0
c gate 128 110 127 0
110 -128 0
127 -128 0
-110 -127 128 0
c gate 129 13 29 0
13 -129 0
29 -129 0
-13 -29 129 0
c gate 130 -108 -129 0
-108 -130 0
-129 -130 0
108 129 130 0
c gate 131 -128 130 0
-128 -131 0
130 -131 0
128 -130 131 0
c gate 132 -107 -131 0
-107 -132 0
-131 -132 0
107 131 132 0
c gate 133 106 -132 0
106 -133 0
-132 -133 0
-106 132 133 0
c gate 134 -104 -133 0
-104 -134 0
-133 -134 0
104 133 134 0
c gate 135 103 -134 0
103 -135 0
-134 -135 0
-103 134 135 0
c gate 136 -101 -135 0
-101 -136 0
-135 -136 0
101 135 136 0
c gate 137 106 -130 0
106 -137 0
-130 -137 0
-106 130 137 0
c gate 138 -105 -137 0
-105 -138 0
-137 -138 0
105 137 138 0
c gate 139 103 -138 0
103 -139 0
-138 -139 0
-103 138 139 0
c gate 140 -102 -139 0
-102 -140 0
-139 -140 0
102 139 140 0
c gate 141 -16 -32 0
-16 -141 0
-32 -141 0
16 32 141 0
c gate 142 16 32 0
16 -142 0
32 -142 0
-16 -32 142 0
c gate 143 -141 -142 0
-141 -143 0
-142 -143 0
141 142 143 0
c gate 144 140 143 0
140 -144 0
143 -144 0
-140 -143 144 0
c gate 145 136 144 0
136 -145 0
144 -145 0
-136 -144 145 0
c gate 146 -88 -145 0
-88 -146 0
-145 -146 0
88 145 146 0
c gate 147 -106 130 0
-106 -147 0
130 -147 0
106 -130 147 0
c gate 148 -137 -147 0
-137 -148 0
-147 -148 0
137 147 148 0
c gate 149 -106 132 0
-106 -149 0
132 -149 0
106 -132 149 0
c gate 150 -133 -149 0
-133 -150 0
-149 -150 0
133 149 150 0
c gate 151 -148 -150 0
-148 -151 0
-150 -151 0
148 150 151 0
c gate 152 148 150 0
148 -152 0
150 -152 0
-148 -150 152 0
c gate 153 -151 -152 0
-151 -153 0
-152 -153 0
151 152 153 0
c gate 154 -59 -124 0
-59 -154 0
-124 -154 0
59 124 154 0
c gate 155 -115 154 0
-115 -155 0
154 -155 0
115 -154 155 0
c gate 156 -54 -111 0
-54 -156 0
-111 -156 0
54 111 156 0
c gate 157 -155 156 0
-155 -157 0
156 -157 0
155 -156 157 0
c gate 158 -55 -157 0
-55 -158 0
-157 -158 0
55 157 158 0
c gate 159 -110 127 0
-110 -159 0
127 -159 0
110 -127 159 0
c gate 160 158 -159 0
158 -160 0
-159 -160 0
-158 159 160 0
c gate 161 110 -127 0
110 -161 0
-127 -161 0
-110 127 161 0
c gate 162 -158 -161 0
-158 -162 0
-161 -162 0
158 161 162 0
c gate 163 -160 -162 0
-160 -163 0
-162 -163 0
160 162 163 0
c gate 164 153 163 0
153 -164 0
163 -164 0
-153 -163 164 0
c gate 165 -140 -143 0
-140 -165 0
-143 -165 0
140 143 165 0
c gate 166 -144 -165 0
-144 -166 0
-165 -166 0
144 165 166 0
c gate 167 136 -143 0
136 -167 0
-143 -167 0
-136 143 167 0
c gate 168 -136 143 0
-136 -168 0
143 -168 0
136 -143 168 0
c gate 169 -167 -168 0
-167 -169 0
-168 -169 0
167 168 169 0
c gate 170 -166 169 0
-166 -170 0
169 -170 0
166 -169 170 0
c gate 171 166 -169 0
166 -171 0
-169 -171 0
-166 169 171 0
c gate 172 -103 138 0
-103 -172 0
138 -172 0
103 -138 172 0
c gate 173 -139 -172 0
-139 -173 0
-172 -173 0
139 172 173 0
c gate 174 -103 134 0
-103 -174 0
134 -174 0
103 -134 174 0
c gate 175 -135 -174 0
-135 -175 0
-174 -175 0
135 174 175 0
c gate 176 -173 -175 0
-173 -176 0
-175 -176 0
173 175 176 0
c gate 177 173 175 0
173 -177 0
175 -177 0
-173 -175 177 0
c gate 178 -107 -129 0
-107 -178 0
-129 -178 0
107 129 178 0
c gate 179 128 -178 0
128 -179 0
-178 -179 0
-128 178 179 0
c gate 180 -151 -179 0
-151 -180 0
-179 -180 0
151 179 180 0
c gate 181 -177 -180 0
-177 -181 0
-180 -181 0
177 180 181 0
c gate 182 -176 -181 0
-176 -182 0
-181 -182 0
176 181 182 0
c gate 183 -171 182 0
-171 -183 0
182 -183 0
171 -182 183 0
c gate 184 -170 -183 0
-170 -184 0
-183 -184 0
170 183 184 0
c gate 185 -164 -184 0
-164 -185 0
-184 -185 0
164 184 185 0
c gate 186 -120 -128 0
-120 -186 0
-128 -186 0
120 128 186 0
c gate 187 153 186 0
153 -187 0
186 -187 0
-153 -186 187 0
c gate 188 -185 -187 0
-185 -188 0
-187 -188 0
185 187 188 0
c gate 189 146 188 0
146 -189 0
188 -189 0
-146 -188 189 0
c gate 190 88 -118 0
88 -190 0
-118 -190 0
-88 118 190 0
c gate 191 -88 143 0
-88 -191 0
143 -191 0
88 -143 191 0
c gate 192 171 191 0
171 -192 0
191 -192 0
-171 -191 192 0
c gate 193 -190 -192 0
-190 -193 0
-192 -193 0
190 192 193 0
c gate 194 -189 193 0
-189 -194 0
193 -194 0
189 -193 194 0
c gate 195 -94 -194 0
-94 -195 0
-194 -195 0
94 194 195 0
c gate 196 70 93 0
70 -196 0
93 -196 0
-70 -93 196 0
c gate 197 90 196 0
90 -197 0
196 -197 0
-90 -196 197 0
c gate 198 -94 -197 0
-94 -198 0
-197 -198 0
94 197 198 0
c gate 199 -111 -124 0
-111 -199 0
-124 -199 0
111 124 199 0
c gate 200 -61 -199 0
-61 -200 0
-199 -200 0
61 199 200 0
c gate 201 -197 200 0
-197 -201 0
200 -201 0
197 -200 201 0
c gate 202 -198 -201 0
-198 -202 0
-201 -202 0
198 201 202 0
c gate 203 -195 -202 0
-195 -203 0
-202 -203 0
195 202 203 0
c gate 204 -100 203 0
-100 -204 0
203 -204 0
100 -203 204 0
c gate 205 -97 -204 0
-97 -205 0
-204 -205 0
97 204 205 0
c gate 206 -103 -106 0
-103 -206 0
-106 -206 0
103 106 206 0
c gate 207 -110 -143 0
-110 -207 0
-143 -207 0
110 143 207 0
c gate 208 -178 207 0
-178 -208 0
207 -208 0
178 -207 208 0
c gate 209 206 208 0
206 -209 0
208 -209 0
-206 -208 209 0
c gate 210 97 209 0
97 -210 0
209 -210 0
-97 -209 210 0
c gate 211 -205 -210 0
-205 -211 0
-210 -211 0
205 210 211 0
c gate 212 53 211 0
53 -212 0
211 -212 0
-53 -211 212 0
c gate 213 116 118 0
116 -213 0
118 -213 0
-116 -118 213 0
c gate 214 -117 -213 0
-117 -214 0
-213 -214 0
117 213 214 0
c gate 215 -212 214 0
-212 -215 0
214 -215 0
212 -214 215 0
c PO
215 0
